1 - 0
2 - 0
3 - 0
4 - 0
5 - 0
6 - 0
7 - 0
8 - 0
9 - 0
10 - 0
11 - 0
12 - 0
13 - 0
14 - 0
15 - 0
16 - 0
17 - 0
18 - 0
19 - 0
20 - 0
21 - 0
22 - 0
23 - 0
24 - 0
25 - 0
26 - 0
27 - 0
28 - 0
29 - 0
30 - 0
31 - 0
32 - 0
33 - 0
34 - 0
35 - 0
36 - 0
37 - 0
38 - 0
39 - 0
40 - 0
41 - 0
42 - 0
43 - 0
44 - 0
45 - 0
46 - 0
47 - 0
48 - 0
49 - 0
50 - 0
51 - 0
52 - 0
53 - 0
54 - 0
55 - 0
56 - 0
57 - 0
58 - 0
59 - 0
60 - 0
61 - 0
62 - 0
63 - 0
64 - 0
65 - 0
66 - 0
67 - 0
68 - 0
69 - 0
70 - 0
71 - 0
72 - 0
73 - 0
74 - 0
75 - 0
76 - 0
77 - 0
78 - 0
79 - 0
80 - 0
81 - 0
82 - 0
83 - 0
84 - 0
85 - 0
86 - 0
87 - 0
88 - 0
89 - 0
90 - 0
91 - 0
92 - 0
93 - 0
94 - 0
95 - 0
96 - 0
97 - 0
98 - 0
99 - 0
100 - 0
101 - 0
102 - 0
103 - 0
104 - 0
105 - 0
106 - 0
107 - 0
108 - 0
109 - 0
110 - 0
111 - 0
112 - 0
113 - 0
114 - 0
115 - 0
116 - 0
117 - 0
118 - 0
119 - 0
120 - 0
121 - 0
122 - 0
123 - 0
124 - 0
125 - 0
126 - 0
127 - 0
128 - 0
129 - 0
130 - 0
131 - 0
132 - 0
133 - 0
134 - 0
135 - 0
136 - 0
137 - 0
138 - 0
139 - 0
140 - 0
141 - 0
142 - 0
143 - 0
144 - 0
145 - 0
146 - 0
147 - 0
148 - 0
149 - 0
150 - 0
151 - 0
152 - 0
153 - 0
154 - 0
155 - 0
156 - 0
157 - 0
158 - 1
159 - 1
160 - 2
161 - 4
162 - 5
163 - 7
164 - 10
165 - 12
166 - 22
167 - 22
168 - 21
169 - 29
170 - 34
171 - 40
172 - 34
173 - 28
174 - 37
175 - 31
176 - 42
177 - 35
178 - 27
179 - 34
180 - 43
181 - 28
182 - 37
183 - 28
184 - 24
185 - 34
186 - 22
187 - 25
188 - 27
189 - 24
190 - 19
191 - 30
192 - 30
193 - 24
194 - 22
195 - 29
196 - 23
197 - 25
198 - 40
199 - 29
200 - 39
201 - 40
202 - 37
203 - 40
204 - 42
205 - 42
206 - 49
207 - 54
208 - 44
209 - 36
210 - 47
211 - 40
212 - 48
213 - 44
214 - 46
215 - 45
216 - 48
217 - 52
218 - 59
219 - 57
220 - 59
221 - 59
222 - 55
223 - 72
224 - 79
225 - 70
226 - 93
227 - 71
228 - 76
229 - 98
230 - 100
231 - 85
232 - 73
233 - 75
234 - 89
235 - 113
236 - 113
237 - 112
238 - 123
239 - 121
240 - 123
241 - 130
242 - 141
243 - 104
244 - 143
245 - 133
246 - 125
247 - 134
248 - 146
249 - 148
250 - 142
251 - 166
252 - 169
253 - 168
254 - 177
255 - 167
256 - 184
257 - 195
258 - 202
259 - 220
260 - 246
261 - 251
262 - 241
263 - 261
264 - 250
265 - 246
266 - 267
267 - 305
268 - 310
269 - 327
270 - 309
271 - 329
272 - 326
273 - 344
274 - 391
275 - 410
276 - 381
277 - 407
278 - 429
279 - 452
280 - 471
281 - 500
282 - 493
283 - 456
284 - 546
285 - 549
286 - 641
287 - 590
288 - 656
289 - 648
290 - 683
291 - 721
292 - 771
293 - 815
294 - 880
295 - 845
296 - 955
297 - 997
298 - 1043
299 - 1099
300 - 1184
301 - 1259
302 - 1323
303 - 1353
304 - 1468
305 - 1561
306 - 1588
307 - 1693
308 - 1846
309 - 1929
310 - 1997
311 - 2131
312 - 2150
313 - 2378
314 - 2508
315 - 2504
316 - 2702
317 - 2792
318 - 2839
319 - 2955
320 - 3123
321 - 3144
322 - 3369
323 - 3502
324 - 3430
325 - 3496
326 - 3572
327 - 3611
328 - 3768
329 - 3724
330 - 3626
331 - 3809
332 - 3815
333 - 3659
334 - 3631
335 - 3489
336 - 3293
337 - 3379
338 - 3244
339 - 2972
340 - 2698
341 - 2637
342 - 2324
343 - 2050
344 - 1788
345 - 1542
346 - 1293
347 - 955
348 - 627
349 - 319
350 - 0

0.1 - 15098
0.2 - 15427
0.3 - 15428
0.4 - 15475
0.5 - 15293
0.6 - 15554
0.7 - 15317
0.8 - 15279
0.9 - 15477
1 - 15345
